91 95 87 42 12 55 24 17 96 77 64 49 28 52 14 40 39 78 13 38 23 18 16 85 40 
12 48 83 85 95 95 10 75 85 52 12 24 73 98 83 37 81 94 57 89 42 45 22 11 53 
53 80 31 73 93 46 95 90 12 54 23 45 55 77 89 13 80 39 14 83 14 74 58 60 66 
92 82 17 31 85 53 43 96 73 19 57 53 86 67 20 99 65 62 53 57 42 48 75 77 58 
755
29 69 52 23 24 55 32 39 71 35 30 65 38 47 95 77 82 22 72 62 14 37 89 81 16 
628
20 58 83 82 32 73 32 11 10 93 50 74 54 73 76 91 49 52 58 16 53 12 87 27 86 
676
